Sat 19 May 19:40:41 CEST 2018
CPXPARAM_TimeLimit                               45
CPXPARAM_Threads                                 1
CPXPARAM_MIP_Strategy_CallbackReducedLP          0
Tried aggregator 3 times.
MIP Presolve eliminated 1348 rows and 1238 columns.
MIP Presolve modified 7032 coefficients.
Aggregator did 12451 substitutions.
Reduced MIP has 19416 rows, 14307 columns, and 42649 nonzeros.
Reduced MIP has 12566 binaries, 6 generals, 0 SOSs, and 1735 indicators.
Presolve time = 0.18 sec. (462.39 ticks)
Found incumbent of value 19.000000 after 0.25 sec. (518.13 ticks)
Probing time = 0.19 sec. (131.84 ticks)
Tried aggregator 2 times.
Aggregator did 8667 substitutions.
Reduced MIP has 10749 rows, 5640 columns, and 25315 nonzeros.
Reduced MIP has 3899 binaries, 1741 generals, 0 SOSs, and 1735 indicators.
Presolve time = 0.04 sec. (43.74 ticks)
Probing time = 0.12 sec. (109.78 ticks)
Tried aggregator 1 time.
Reduced MIP has 10749 rows, 5640 columns, and 25315 nonzeros.
Reduced MIP has 3899 binaries, 1741 generals, 0 SOSs, and 1735 indicators.
Presolve time = 0.02 sec. (22.19 ticks)
Probing time = 0.01 sec. (6.78 ticks)
Clique table members: 272094.
MIP emphasis: balance optimality and feasibility.
MIP search method: dynamic search.
Parallel mode: none, using 1 thread.
Root relaxation solution time = 0.13 sec. (204.43 ticks)

        Nodes                                         Cuts/
   Node  Left     Objective  IInf  Best Integer    Best Bound    ItCnt     Gap

*     0+    0                           19.0000        0.0000           100.00%
      0     0        0.0000  2003       19.0000        0.0000     1577  100.00%
      0     0        0.0000  1618       19.0000 Cliques: 2787     2073  100.00%
      0     0        0.0000  1689       19.0000 Cliques: 2787     2556  100.00%
*     0+    0                           16.0000        0.0000           100.00%
      0     2        0.0000    99       16.0000        0.0000     2558  100.00%
Elapsed time = 22.03 sec. (24379.83 ticks, tree = 0.01 MB, solutions = 2)
     20    22        0.0000   436       16.0000        0.0000     2599  100.00%
     65    67        0.0000   425       16.0000        0.0000     2678  100.00%
     73    75        0.0000   157       16.0000        0.0000     5091  100.00%
     96    98        1.0000    91       16.0000        0.0000     5391  100.00%
    170   172        0.0000   427       16.0000        0.0000     5474  100.00%
    225   227        0.0000    44       16.0000        0.0000     5603  100.00%
*   260+  253                           15.0000        0.0000           100.00%
    260   252       15.0000    21       15.0000        0.0000     5804  100.00%
*   270+  252                           14.0000        0.0000           100.00%
    302   286        9.0000     3       14.0000        0.0000     6119  100.00%
*   312   276      integral     0       11.0000        0.0000     6160  100.00%
    385   209        7.0000    88       11.0000        0.0000     7107  100.00%
*   426   222      integral     0       10.0000        0.0000     7467  100.00%
*   440+  181                            9.0000        0.0000           100.00%
    476   189        8.0000   407        9.0000        0.0000    10501  100.00%
Elapsed time = 25.15 sec. (28027.17 ticks, tree = 0.92 MB, solutions = 7)
*   500+  165                            8.0000        0.0000           100.00%
*   530+  162                            6.0000        0.0000           100.00%
*   550   136      integral     0        5.0000        0.0000    12818  100.00%
    585   103        0.0000   447        5.0000        0.0000    15505  100.00%
*   602   115      integral     0        4.0000        0.0000    15831  100.00%
*   620+  119                            3.0000        0.0000           100.00%
    632   114    infeasible              3.0000        0.0000    20397  100.00%
    667   119        1.0000   110        3.0000        0.0000    25685  100.00%
    696   132        1.0000   161        3.0000        0.0000    30216  100.00%
    814    60    infeasible              3.0000        1.0000    35588   66.67%
    894    38    infeasible              3.0000        1.0000    40235   66.67%
    971    39    infeasible              3.0000        1.0000    44477   66.67%

Clique cuts applied:  5574
Implied bound cuts applied:  37

Root node processing (before b&c):
  Real time             =   22.01 sec. (24358.79 ticks)
Sequential b&c:
  Real time             =    8.51 sec. (11463.64 ticks)
                          ------------
Total (root+branch&cut) =   30.53 sec. (35822.43 ticks)
   | W
 L | 0 1 2 3 4 5 6 7 8 9 10 
----------------------------
 0 | . . . 4 4 4 4 . . .  . 
 1 | . . 5 5 5 5 2 2 2 2  . 
 2 | . . 3 3 3 3 . 1 1 1  1 
 3 | . . . . . . . . . .  . 
 4 | . . . . . . . . . .  . 
 5 | . . . . . . . . . .  . 
 6 | . . . . . . . . . .  . 
 7 | . . . . . . . . . .  . 
 8 | . . . . . . . . . .  . 
 9 | . . . . . . . . . .  . 
10 | . . . . . . . . . .  . 
11 | . . . . . . . . . .  . 
12 | . . . . . . . . . .  . 
13 | . . . . . . . . . .  . 
14 | . . . . . . . . . .  . 
15 | . . . . . . . . . .  . 
16 | . . . . . . . . . .  . 
17 | . . . . . . . . . .  . 
18 | . . . . . . . . . .  . 
19 | . . . . . . . . . .  . 

Boxes' corners:      (w,l)
    Box 1 is at 
        top left     (7,2)
        bottom right (10,2)

    Box 2 is at 
        top left     (6,1)
        bottom right (9,1)

    Box 3 is at 
        top left     (2,2)
        bottom right (5,2)

    Box 4 is at 
        top left     (3,0)
        bottom right (6,0)

    Box 5 is at 
        top left     (2,1)
        bottom right (5,1)

    Roll length used: 3
In 30.66 seconds
